30
5
42020
0
0
53 57 30 59 68
1
0
54 49 46 55 48
2
0
46 57 29 71 51
3
0
42 46 34 55 37
4
0
51 39 30 61 39
5
0
73 54 52 48 40
6
0
49 51 40 43 65
7
0
55 54 38 64 58
8
0
30 61 37 65 56
9
0
45 61 53 64 44
10
0
65 53 50 56 53
11
0
45 53 68 51 48
12
0
58 39 60 56 45
13
0
34 64 41 48 41
14
0
55 54 42 68 58
15
0
26 47 58 46 52
16
0
50 43 66 42 48
17
0
62 41 67 50 57
18
0
48 46 56 46 55
19
0
52 57 47 42 49
20
0
33 67 54 39 61
21
0
48 49 58 42 50
22
0
41 38 61 38 47
23
0
51 48 56 52 57
24
0
48 60 47 71 61
25
0
39 47 58 40 50
26
0
38 41 45 70 42
27
0
42 54 39 69 29
28
0
48 30 47 60 55
29
0
53 51 55 40 52
